c FILE: random-n100-d20-c-n100-d20-1.col

p edge 100 990
e 1 18
e 1 28
e 1 41
e 1 47
e 1 48
e 1 50
e 1 51
e 1 56
e 1 58
e 1 60
e 1 62
e 1 68
e 1 69
e 1 70
e 1 74
e 1 84
e 1 86
e 1 92
e 1 98
e 1 99
e 2 5
e 2 12
e 2 17
e 2 29
e 2 30
e 2 32
e 2 38
e 2 47
e 2 53
e 2 60
e 2 76
e 2 80
e 2 83
e 2 86
e 2 95
e 2 97
e 2 99
e 3 6
e 3 7
e 3 11
e 3 13
e 3 16
e 3 18
e 3 35
e 3 37
e 3 44
e 3 51
e 3 57
e 3 59
e 3 60
e 3 63
e 3 64
e 3 67
e 3 68
e 3 71
e 3 72
e 3 84
e 3 88
e 3 94
e 3 95
e 3 96
e 3 100
e 4 6
e 4 9
e 4 12
e 4 17
e 4 20
e 4 36
e 4 41
e 4 43
e 4 44
e 4 52
e 4 60
e 4 73
e 4 75
e 4 79
e 4 95
e 4 96
e 5 8
e 5 16
e 5 20
e 5 24
e 5 25
e 5 27
e 5 28
e 5 31
e 5 33
e 5 35
e 5 36
e 5 42
e 5 47
e 5 53
e 5 56
e 5 57
e 5 58
e 5 60
e 5 64
e 5 65
e 5 79
e 5 84
e 5 88
e 5 99
e 6 9
e 6 12
e 6 13
e 6 18
e 6 24
e 6 30
e 6 33
e 6 35
e 6 36
e 6 41
e 6 45
e 6 53
e 6 61
e 6 62
e 6 69
e 6 74
e 6 80
e 6 81
e 6 91
e 6 93
e 6 96
e 7 8
e 7 12
e 7 13
e 7 15
e 7 16
e 7 22
e 7 28
e 7 32
e 7 36
e 7 38
e 7 40
e 7 44
e 7 48
e 7 56
e 7 57
e 7 67
e 7 72
e 7 79
e 7 80
e 7 81
e 7 84
e 7 93
e 7 94
e 7 95
e 8 9
e 8 11
e 8 14
e 8 17
e 8 18
e 8 28
e 8 30
e 8 51
e 8 52
e 8 65
e 8 100
e 9 17
e 9 30
e 9 36
e 9 38
e 9 40
e 9 41
e 9 42
e 9 45
e 9 47
e 9 48
e 9 49
e 9 50
e 9 54
e 9 58
e 9 59
e 9 69
e 9 73
e 9 74
e 9 78
e 9 79
e 9 82
e 9 86
e 9 89
e 9 95
e 10 13
e 10 23
e 10 38
e 10 42
e 10 52
e 10 57
e 10 71
e 10 80
e 10 86
e 10 88
e 10 91
e 10 93
e 11 12
e 11 15
e 11 19
e 11 24
e 11 25
e 11 30
e 11 37
e 11 39
e 11 44
e 11 46
e 11 53
e 11 59
e 11 64
e 11 65
e 11 68
e 11 84
e 11 87
e 12 17
e 12 18
e 12 22
e 12 24
e 12 30
e 12 32
e 12 35
e 12 36
e 12 38
e 12 50
e 12 52
e 12 62
e 12 67
e 12 90
e 12 95
e 12 100
e 13 16
e 13 18
e 13 27
e 13 33
e 13 43
e 13 49
e 13 52
e 13 53
e 13 55
e 13 67
e 13 72
e 13 81
e 13 85
e 13 89
e 13 97
e 13 99
e 14 18
e 14 27
e 14 30
e 14 32
e 14 37
e 14 43
e 14 48
e 14 50
e 14 52
e 14 55
e 14 60
e 14 62
e 14 64
e 14 72
e 14 80
e 14 85
e 14 91
e 14 93
e 14 97
e 14 99
e 15 16
e 15 24
e 15 32
e 15 35
e 15 37
e 15 59
e 15 67
e 15 71
e 15 73
e 15 75
e 15 81
e 16 18
e 16 25
e 16 26
e 16 30
e 16 36
e 16 38
e 16 39
e 16 50
e 16 51
e 16 55
e 16 61
e 16 65
e 16 69
e 16 77
e 16 84
e 16 86
e 16 90
e 16 97
e 17 18
e 17 21
e 17 23
e 17 25
e 17 29
e 17 43
e 17 56
e 17 58
e 17 59
e 17 66
e 17 70
e 17 75
e 17 79
e 17 87
e 17 95
e 17 98
e 18 20
e 18 21
e 18 27
e 18 28
e 18 33
e 18 34
e 18 35
e 18 50
e 18 70
e 18 77
e 18 79
e 18 83
e 18 92
e 18 93
e 18 98
e 19 20
e 19 33
e 19 40
e 19 51
e 19 53
e 19 61
e 19 68
e 19 69
e 19 70
e 19 71
e 19 75
e 19 79
e 19 85
e 19 86
e 19 87
e 19 91
e 19 93
e 19 95
e 19 100
e 20 45
e 20 51
e 20 52
e 20 53
e 20 62
e 20 64
e 20 69
e 20 75
e 20 80
e 20 82
e 20 83
e 20 84
e 20 88
e 20 100
e 21 24
e 21 33
e 21 39
e 21 43
e 21 44
e 21 49
e 21 56
e 21 67
e 21 69
e 21 75
e 21 80
e 21 84
e 21 86
e 21 87
e 21 88
e 21 98
e 22 23
e 22 30
e 22 31
e 22 39
e 22 42
e 22 43
e 22 47
e 22 54
e 22 59
e 22 61
e 22 71
e 22 72
e 22 77
e 22 79
e 22 81
e 22 87
e 22 92
e 22 94
e 22 98
e 23 33
e 23 39
e 23 41
e 23 42
e 23 50
e 23 59
e 23 60
e 23 61
e 23 64
e 23 67
e 23 68
e 23 69
e 23 81
e 23 83
e 23 87
e 23 89
e 23 91
e 23 92
e 23 98
e 24 26
e 24 38
e 24 41
e 24 51
e 24 60
e 24 62
e 24 66
e 24 76
e 24 79
e 24 86
e 24 91
e 24 97
e 25 28
e 25 31
e 25 34
e 25 43
e 25 48
e 25 49
e 25 50
e 25 60
e 25 63
e 25 70
e 25 72
e 25 76
e 25 78
e 25 79
e 25 81
e 25 85
e 25 86
e 25 91
e 25 92
e 25 96
e 26 41
e 26 49
e 26 51
e 26 58
e 26 60
e 26 67
e 26 68
e 26 76
e 26 86
e 26 87
e 26 98
e 26 99
e 27 46
e 27 55
e 27 59
e 27 60
e 27 66
e 27 69
e 27 71
e 27 72
e 27 75
e 27 78
e 27 84
e 27 85
e 27 92
e 28 29
e 28 38
e 28 48
e 28 55
e 28 57
e 28 61
e 28 65
e 28 66
e 28 69
e 28 70
e 28 99
e 29 38
e 29 41
e 29 48
e 29 52
e 29 57
e 29 60
e 29 61
e 29 67
e 29 69
e 29 73
e 29 79
e 29 91
e 29 96
e 29 98
e 29 99
e 30 58
e 30 80
e 30 81
e 30 83
e 30 84
e 30 85
e 30 92
e 31 39
e 31 40
e 31 44
e 31 49
e 31 53
e 31 54
e 31 57
e 31 59
e 31 65
e 31 66
e 31 67
e 31 74
e 31 75
e 31 79
e 31 82
e 31 86
e 31 90
e 32 44
e 32 52
e 32 54
e 32 61
e 32 70
e 32 71
e 32 72
e 32 74
e 32 84
e 32 94
e 33 40
e 33 43
e 33 48
e 33 49
e 33 57
e 33 64
e 33 67
e 33 76
e 33 79
e 33 87
e 33 91
e 33 92
e 34 35
e 34 58
e 34 61
e 34 81
e 34 85
e 34 95
e 34 97
e 35 46
e 35 49
e 35 50
e 35 51
e 35 52
e 35 56
e 35 62
e 35 64
e 35 81
e 35 85
e 35 94
e 35 98
e 36 38
e 36 41
e 36 42
e 36 47
e 36 52
e 36 53
e 36 58
e 36 66
e 36 72
e 36 75
e 36 77
e 36 78
e 36 80
e 36 95
e 37 48
e 37 52
e 37 58
e 37 62
e 37 65
e 37 69
e 37 73
e 37 81
e 37 82
e 37 84
e 37 85
e 37 86
e 37 89
e 37 91
e 37 96
e 37 97
e 37 99
e 37 100
e 38 40
e 38 44
e 38 52
e 38 62
e 38 68
e 38 74
e 38 75
e 38 76
e 38 79
e 38 80
e 38 81
e 38 83
e 38 84
e 38 89
e 38 94
e 38 99
e 39 42
e 39 43
e 39 48
e 39 49
e 39 50
e 39 51
e 39 53
e 39 68
e 39 71
e 39 73
e 39 74
e 39 77
e 39 78
e 39 80
e 39 81
e 39 84
e 39 91
e 39 94
e 40 41
e 40 49
e 40 50
e 40 55
e 40 61
e 40 62
e 40 71
e 40 75
e 40 76
e 40 82
e 40 85
e 40 88
e 40 92
e 40 100
e 41 43
e 41 44
e 41 45
e 41 48
e 41 50
e 41 55
e 41 60
e 41 72
e 41 73
e 41 80
e 41 83
e 41 85
e 41 87
e 41 89
e 41 93
e 42 51
e 42 53
e 42 65
e 42 67
e 42 68
e 42 78
e 42 81
e 42 89
e 42 96
e 43 49
e 43 50
e 43 51
e 43 52
e 43 62
e 43 68
e 43 69
e 43 71
e 43 91
e 43 94
e 43 99
e 44 45
e 44 48
e 44 54
e 44 55
e 44 56
e 44 62
e 44 72
e 44 74
e 44 78
e 44 80
e 44 84
e 44 96
e 45 51
e 45 57
e 45 60
e 45 61
e 45 63
e 45 69
e 45 71
e 45 85
e 45 96
e 45 98
e 46 57
e 46 62
e 46 71
e 46 72
e 46 74
e 46 87
e 46 92
e 46 93
e 46 98
e 46 99
e 46 100
e 47 54
e 47 61
e 47 65
e 47 70
e 47 72
e 47 81
e 47 87
e 47 94
e 47 100
e 48 49
e 48 50
e 48 63
e 48 75
e 48 76
e 48 81
e 48 95
e 48 96
e 48 98
e 49 52
e 49 56
e 49 57
e 49 59
e 49 60
e 49 64
e 49 66
e 49 73
e 49 76
e 49 78
e 49 81
e 49 86
e 49 88
e 49 93
e 50 51
e 50 54
e 50 57
e 50 58
e 50 76
e 50 87
e 50 88
e 50 91
e 50 96
e 50 97
e 51 58
e 51 59
e 51 66
e 51 76
e 51 80
e 51 87
e 51 95
e 51 97
e 51 98
e 52 53
e 52 54
e 52 56
e 52 78
e 52 80
e 52 84
e 52 85
e 52 86
e 52 99
e 53 59
e 53 71
e 53 73
e 53 74
e 53 81
e 53 82
e 53 85
e 53 95
e 54 59
e 54 81
e 54 87
e 54 90
e 54 97
e 54 98
e 55 56
e 55 58
e 55 60
e 55 63
e 55 69
e 55 81
e 55 88
e 55 91
e 55 96
e 56 58
e 56 61
e 56 65
e 56 67
e 56 70
e 56 77
e 56 78
e 56 86
e 56 89
e 56 97
e 57 61
e 57 69
e 57 74
e 57 77
e 57 84
e 57 99
e 58 59
e 58 63
e 58 74
e 58 75
e 58 78
e 58 86
e 58 94
e 58 95
e 58 97
e 58 99
e 59 68
e 59 73
e 59 79
e 59 85
e 59 87
e 60 64
e 60 68
e 60 72
e 60 79
e 60 83
e 60 88
e 60 89
e 60 91
e 60 94
e 60 99
e 61 64
e 61 65
e 61 66
e 61 71
e 61 77
e 61 84
e 61 86
e 61 88
e 61 89
e 61 91
e 61 95
e 61 99
e 62 63
e 62 70
e 62 74
e 62 82
e 62 89
e 63 71
e 63 74
e 63 76
e 63 91
e 63 92
e 63 95
e 63 97
e 64 69
e 64 70
e 64 71
e 64 72
e 64 84
e 64 86
e 64 89
e 64 97
e 65 67
e 65 68
e 65 69
e 65 73
e 65 74
e 65 75
e 65 90
e 65 92
e 65 93
e 65 95
e 66 68
e 66 69
e 66 76
e 66 83
e 66 90
e 66 94
e 67 75
e 67 76
e 67 77
e 67 82
e 67 83
e 67 87
e 67 90
e 67 92
e 67 94
e 67 97
e 67 100
e 68 74
e 69 76
e 69 78
e 69 79
e 69 83
e 69 85
e 69 86
e 69 92
e 69 94
e 69 99
e 70 77
e 70 82
e 70 89
e 70 94
e 70 95
e 71 72
e 71 73
e 71 80
e 71 84
e 71 96
e 71 98
e 71 99
e 72 73
e 72 75
e 72 83
e 72 88
e 72 97
e 72 100
e 73 78
e 73 79
e 73 81
e 73 87
e 73 96
e 73 99
e 74 79
e 74 87
e 74 90
e 74 91
e 75 76
e 75 79
e 75 82
e 75 84
e 76 77
e 76 86
e 76 88
e 76 90
e 76 93
e 77 83
e 77 89
e 78 80
e 78 81
e 78 82
e 78 90
e 79 87
e 79 88
e 79 92
e 79 99
e 80 83
e 80 94
e 80 96
e 80 99
e 80 100
e 81 83
e 81 91
e 81 94
e 82 90
e 82 93
e 83 93
e 83 94
e 83 96
e 83 99
e 84 93
e 84 94
e 84 98
e 85 93
e 85 95
e 85 99
e 86 87
e 86 92
e 86 98
e 87 88
e 87 97
e 88 93
e 88 96
e 89 96
e 89 98
e 90 91
e 90 94
e 90 100
e 91 92
e 91 94
e 92 97
e 92 100
e 93 96
e 94 99
e 94 100
e 95 96
e 96 97
e 97 98
e 97 100
e 98 100